8  4
2  3  1  6  3  7  4  5  3  4  6  2  5  3  7
2  3  2  11  4  10  3  12  3  4  9  3  10  1  8
2  3  2  9  3  10  4  8  3  4  7  1  6  3  8
2  3  3  16  2  14  1  17  3  4  7  3  9  2  6
2  3  1  9  4  11  2  10  3  3  18  2  20  4  17
3  3  2  13  3  12  1  14  3  3  19  4  18  2  17  3  4  6  1  8  3  7
3  3  1  10  3  11  4  11  3  2  9  1  10  3  10	3  3  13  2  11  1  11
3  3  1  11  2  9  4  10  3  2  9  3  10  1  11  3  4  8  1  9  3  7